(set-logic HORN)
(set-info :source |
    Benchmark: C_VC
    Output by Princess (http://www.philipp.ruemmer.org/princess.shtml)
|)
(set-info :status unsat)
(declare-heap Heap Addr HeapObject
 defObj
 ((HeapObject 0) (TSLL 0)) (
  (
   (O_Int (getInt Int))
   (O_UInt (getUInt Int))
   (O_Addr (getAddr Addr))
   (O_TSLL (getTSLL TSLL))
   (defObj)
  )
  (
   (TSLL (next Addr) (prev Addr) (data Int))
  )
))
(declare-fun inv_main0 (Heap Int) Bool)
(declare-fun inv_main11 (Heap Addr Addr) Bool)
(declare-fun inv_main12 (Heap Addr Addr Addr) Bool)
(declare-fun inv_main13 (Heap Addr Addr) Bool)
(declare-fun inv_main14 (Heap Addr Addr) Bool)
(declare-fun inv_main16 (Heap Addr Addr) Bool)
(declare-fun inv_main2 (Heap) Bool)
(declare-fun inv_main22 (Heap Addr Addr) Bool)
(declare-fun inv_main24 (Heap Addr Addr) Bool)
(declare-fun inv_main25 (Heap Addr Addr) Bool)
(declare-fun inv_main28 (Heap Addr Addr) Bool)
(declare-fun inv_main29 (Heap Addr Addr) Bool)
(declare-fun inv_main3 (Heap Addr) Bool)
(declare-fun inv_main32 (Heap Addr Addr) Bool)
(declare-fun inv_main39 (Heap Addr Addr Addr) Bool)
(declare-fun inv_main4 (Heap Addr) Bool)
(declare-fun inv_main40 (Heap Addr Addr Addr Addr) Bool)
(declare-fun inv_main41 (Heap Addr Addr Addr) Bool)
(declare-fun inv_main44 (Heap Addr Addr Addr) Bool)
(declare-fun inv_main46 (Heap Addr Addr Addr) Bool)
(declare-fun inv_main47 (Heap Addr Addr Addr Addr) Bool)
(declare-fun inv_main49 (Heap Addr Addr) Bool)
(declare-fun inv_main5 (Heap Addr) Bool)
(declare-fun inv_main50 (Heap Addr Addr) Bool)
(declare-fun inv_main51 (Heap Addr Addr) Bool)
(declare-fun inv_main58 (Heap Addr Addr) Bool)
(declare-fun inv_main59 (Heap Addr Addr) Bool)
(declare-fun inv_main65 (Heap Addr Addr) Bool)
(declare-fun inv_main7 (Heap Addr Addr) Bool)
(declare-fun inv_main71 (Heap Addr Addr) Bool)
(declare-fun inv_main74 (Heap Addr Addr) Bool)
(assert (inv_main2 emptyHeap))
(assert (forall ((var0 Addr) (var1 Addr) (var2 Heap) (var3 Addr) (var4 Addr) (var5 Addr) (var6 Heap) (var7 Addr) (var8 Addr) (var9 Heap)) (or (not (and (inv_main74 var9 var8 var7) (and (and (is-O_TSLL (read var9 var7)) (and (and (and (= var6 var9) (= var5 var8)) (= var4 var7)) (= var3 (next (getTSLL (read var9 var7)))))) (and (and (= var2 (write var6 var5 defObj)) (= var1 var5)) (= var0 var3))))) (inv_main71 var2 var1 var0))))
(assert (forall ((var0 Addr) (var1 Addr) (var2 Heap) (var3 Addr) (var4 Addr) (var5 Addr) (var6 Heap)) (or (not (and (inv_main50 var6 var5 var4) (and (= var3 nullAddr) (and (is-O_TSLL (read var6 var4)) (and (and (and (= var2 var6) (= var1 var5)) (= var0 var4)) (= var3 (next (getTSLL (read var6 var4))))))))) (inv_main71 var2 var1 var1))))
(assert (forall ((var0 Addr) (var1 Addr) (var2 Heap) (var3 Addr) (var4 Addr) (var5 Addr) (var6 Heap)) (or (not (and (inv_main59 var6 var5 var4) (and (= var3 nullAddr) (and (is-O_TSLL (read var6 var4)) (and (and (and (= var2 var6) (= var1 var5)) (= var0 var4)) (= var3 (next (getTSLL (read var6 var4))))))))) (inv_main71 var2 var1 var1))))
(assert (forall ((var0 Addr) (var1 Addr) (var2 Heap) (var3 Int) (var4 Addr) (var5 Addr) (var6 Heap)) (or (not (and (inv_main58 var6 var5 var4) (and (and (= var3 1) (is-O_TSLL (read var6 var4))) (and (and (and (= var2 var6) (= var1 var5)) (= var0 var4)) (= var3 (data (getTSLL (read var6 var4)))))))) (inv_main65 var2 var1 var0))))
(assert (forall ((var0 Addr) (var1 Addr) (var2 Heap)) (or (not (and (inv_main71 var2 var1 var0) (not (= var0 nullAddr)))) (inv_main74 var2 var0 var0))))
(assert (forall ((var0 Int) (var1 Int) (var2 Addr) (var3 Addr) (var4 Heap)) (or (not (and (inv_main7 var4 var3 var2) (and (= var1 0) (= var0 0)))) (inv_main28 var4 var3 var3))))
(assert (forall ((var0 Addr) (var1 Addr) (var2 Addr) (var3 Heap) (var4 Addr) (var5 Addr) (var6 Heap)) (or (not (and (inv_main32 var6 var5 var4) (and (is-O_TSLL (read var6 var4)) (and (and (and (= var3 var6) (= var2 var5)) (= var1 var4)) (= var0 (next (getTSLL (read var6 var4)))))))) (inv_main28 var3 var2 var0))))
(assert (forall ((var0 Addr) (var1 Addr) (var2 Addr) (var3 Heap)) (or (not (and (inv_main39 var3 var2 var1 var0) (is-O_TSLL (read var3 var1)))) (inv_main41 (write var3 var1 (O_TSLL (TSLL (next (getTSLL (read var3 var1))) (prev (getTSLL (read var3 var1))) 1))) var2 var1 var0))))
(assert (forall ((var0 Addr) (var1 Addr) (var2 Addr) (var3 Addr) (var4 Heap)) (or (not (and (inv_main40 var4 var3 var2 var1 var0) (is-O_TSLL (read var4 var2)))) (inv_main39 (write var4 var2 (O_TSLL (TSLL var0 (prev (getTSLL (read var4 var2))) (data (getTSLL (read var4 var2)))))) var3 var2 var1))))
(assert (forall ((var0 Addr) (var1 Addr) (var2 Heap)) (or (not (and (inv_main22 var2 var1 var0) (is-O_TSLL (read var2 var0)))) (inv_main24 (write var2 var0 (O_TSLL (TSLL (next (getTSLL (read var2 var0))) (prev (getTSLL (read var2 var0))) 1))) var1 var0))))
(assert (forall ((var0 Addr) (var1 Addr) (var2 Addr) (var3 Heap) (var4 Addr) (var5 Addr) (var6 Heap)) (or (not (and (inv_main51 var6 var5 var4) (and (is-O_TSLL (read var6 var4)) (and (and (and (= var3 var6) (= var2 var5)) (= var1 var4)) (= var0 (next (getTSLL (read var6 var4)))))))) (inv_main49 var3 var2 var0))))
(assert (forall ((var0 Addr) (var1 Addr) (var2 Heap) (var3 Addr) (var4 Addr) (var5 Addr) (var6 Addr) (var7 Heap)) (or (not (and (inv_main41 var7 var6 var5 var4) (and (and (= var3 nullAddr) (is-O_TSLL (read var7 var5))) (and (and (and (= var2 (write var7 var5 (O_TSLL (TSLL var4 (prev (getTSLL (read var7 var5))) (data (getTSLL (read var7 var5))))))) (= var1 var6)) (= var0 var5)) (= var3 var4))))) (inv_main49 var2 var1 var1))))
(assert (forall ((var0 Addr) (var1 Addr) (var2 Addr) (var3 Heap) (var4 Addr) (var5 Addr) (var6 Addr) (var7 Heap)) (or (not (and (inv_main46 var7 var6 var5 var4) (and (is-O_TSLL (read var7 var4)) (and (and (and (= var3 (write var7 var4 (O_TSLL (TSLL (next (getTSLL (read var7 var4))) var5 (data (getTSLL (read var7 var4))))))) (= var2 var6)) (= var1 var5)) (= var0 var4))))) (inv_main49 var3 var2 var2))))
(assert (forall ((var0 Addr) (var1 Addr) (var2 Heap) (var3 Addr) (var4 Addr) (var5 Heap)) (or (not (and (inv_main25 var5 var4 var3) (and (is-O_TSLL (read var5 var3)) (and (and (= var2 (write var5 var3 (O_TSLL (TSLL (next (getTSLL (read var5 var3))) nullAddr (data (getTSLL (read var5 var3))))))) (= var1 var4)) (= var0 var3))))) (inv_main49 var2 var0 var0))))
(assert (forall ((var0 Addr) (var1 Addr) (var2 Heap) (var3 Addr) (var4 Addr) (var5 Addr) (var6 Heap)) (or (not (and (inv_main50 var6 var5 var4) (and (not (= var3 nullAddr)) (and (is-O_TSLL (read var6 var4)) (and (and (and (= var2 var6) (= var1 var5)) (= var0 var4)) (= var3 (next (getTSLL (read var6 var4))))))))) (inv_main58 var2 var1 var3))))
(assert (forall ((var0 Addr) (var1 Addr) (var2 Heap) (var3 Addr) (var4 Addr) (var5 Addr) (var6 Heap)) (or (not (and (inv_main59 var6 var5 var4) (and (not (= var3 nullAddr)) (and (is-O_TSLL (read var6 var4)) (and (and (and (= var2 var6) (= var1 var5)) (= var0 var4)) (= var3 (next (getTSLL (read var6 var4))))))))) (inv_main58 var2 var1 var3))))
(assert (forall ((var0 Addr) (var1 Addr) (var2 Heap) (var3 Int) (var4 Addr) (var5 Addr) (var6 Heap)) (or (not (and (inv_main49 var6 var5 var4) (and (and (not (= var3 1)) (is-O_TSLL (read var6 var4))) (and (and (and (= var2 var6) (= var1 var5)) (= var0 var4)) (= var3 (data (getTSLL (read var6 var4)))))))) (inv_main51 var2 var1 var0))))
(assert (forall ((var0 Addr) (var1 Addr) (var2 Addr) (var3 Addr) (var4 Heap)) (or (not (and (inv_main47 var4 var3 var2 var1 var0) (is-O_TSLL (read var4 var2)))) (inv_main46 (write var4 var2 (O_TSLL (TSLL (next (getTSLL (read var4 var2))) var0 (data (getTSLL (read var4 var2)))))) var3 var2 var1))))
(assert (forall ((var0 Addr) (var1 Addr) (var2 Heap) (var3 Addr) (var4 Addr) (var5 Heap)) (or (not (and (inv_main16 var5 var4 var3) (and (is-O_TSLL (read var5 var3)) (and (and (= var2 (write var5 var3 (O_TSLL (TSLL nullAddr (prev (getTSLL (read var5 var3))) (data (getTSLL (read var5 var3))))))) (= var1 var4)) (= var0 var3))))) (inv_main7 var2 var1 var0))))
(assert (forall ((var0 Addr) (var1 Heap) (var2 Addr) (var3 Heap)) (or (not (and (inv_main5 var3 var2) (and (is-O_TSLL (read var3 var2)) (and (= var1 (write var3 var2 (O_TSLL (TSLL (next (getTSLL (read var3 var2))) (prev (getTSLL (read var3 var2))) 0)))) (= var0 var2))))) (inv_main7 var1 var0 var0))))
(assert (forall ((var0 Addr) (var1 Addr) (var2 Heap) (var3 Addr) (var4 Addr) (var5 Addr) (var6 Heap)) (or (not (and (inv_main28 var6 var5 var4) (and (and (= var3 nullAddr) (is-O_TSLL (read var6 var4))) (and (and (and (= var2 var6) (= var1 var5)) (= var0 var4)) (= var3 (next (getTSLL (read var6 var4)))))))) (inv_main29 var2 var1 var0))))
(assert (forall ((var0 Addr) (var1 Addr) (var2 Heap) (var3 Addr) (var4 Int) (var5 Addr) (var6 Addr) (var7 Heap)) (or (not (and (inv_main28 var7 var6 var5) (and (not (= var4 0)) (and (and (not (= var3 nullAddr)) (is-O_TSLL (read var7 var5))) (and (and (and (= var2 var7) (= var1 var6)) (= var0 var5)) (= var3 (next (getTSLL (read var7 var5))))))))) (inv_main29 var2 var1 var0))))
(assert (forall ((var0 Addr) (var1 Addr) (var2 Addr) (var3 Heap)) (or (not (and (inv_main12 var3 var2 var1 var0) (is-O_TSLL (read var3 var1)))) (inv_main11 (write var3 var1 (O_TSLL (TSLL var0 (prev (getTSLL (read var3 var1))) (data (getTSLL (read var3 var1)))))) var2 var1))))
(assert (forall ((var0 Addr) (var1 Addr) (var2 Heap)) (or (not (and (inv_main14 var2 var1 var0) (is-O_TSLL (read var2 var0)))) (inv_main16 (write var2 var0 (O_TSLL (TSLL (next (getTSLL (read var2 var0))) (prev (getTSLL (read var2 var0))) 0))) var1 var0))))
(assert (forall ((var0 Addr) (var1 Addr) (var2 Addr) (var3 Heap) (var4 Addr) (var5 Addr) (var6 Heap)) (or (not (and (inv_main13 var6 var5 var4) (and (is-O_TSLL (read var6 var4)) (and (and (and (= var3 var6) (= var2 var5)) (= var1 var4)) (= var0 (next (getTSLL (read var6 var4)))))))) (inv_main14 var3 var2 var0))))
(assert (forall ((var0 Addr) (var1 Addr) (var2 Heap) (var3 Addr) (var4 Addr) (var5 Addr) (var6 Addr) (var7 Heap)) (or (not (and (inv_main41 var7 var6 var5 var4) (and (and (not (= var3 nullAddr)) (is-O_TSLL (read var7 var5))) (and (and (and (= var2 (write var7 var5 (O_TSLL (TSLL var4 (prev (getTSLL (read var7 var5))) (data (getTSLL (read var7 var5))))))) (= var1 var6)) (= var0 var5)) (= var3 var4))))) (inv_main44 var2 var1 var0 var3))))
(assert (forall ((var0 Addr) (var1 Addr) (var2 Heap) (var3 Addr) (var4 Int) (var5 Addr) (var6 Addr) (var7 Heap)) (or (not (and (inv_main28 var7 var6 var5) (and (= var4 0) (and (and (not (= var3 nullAddr)) (is-O_TSLL (read var7 var5))) (and (and (and (= var2 var7) (= var1 var6)) (= var0 var5)) (= var3 (next (getTSLL (read var7 var5))))))))) (inv_main32 var2 var1 var0))))
(assert (forall ((var0 Addr) (var1 Addr) (var2 Heap) (var3 Int) (var4 Addr) (var5 Addr) (var6 Heap)) (or (not (and (inv_main49 var6 var5 var4) (and (and (= var3 1) (is-O_TSLL (read var6 var4))) (and (and (and (= var2 var6) (= var1 var5)) (= var0 var4)) (= var3 (data (getTSLL (read var6 var4)))))))) (inv_main50 var2 var1 var0))))
(assert (forall ((var0 Addr) (var1 Addr) (var2 Addr) (var3 Heap)) (or (not (and (inv_main44 var3 var2 var1 var0) (is-O_TSLL (read var3 var0)))) (inv_main47 var3 var2 var1 var0 (prev (getTSLL (read var3 var0)))))))
(assert (forall ((var0 Addr) (var1 Addr) (var2 Heap)) (or (not (and (inv_main11 var2 var1 var0) (and (is-O_TSLL (read var2 var0)) (is-O_TSLL (read var2 (next (getTSLL (read var2 var0)))))))) (inv_main13 (write var2 (next (getTSLL (read var2 var0))) (O_TSLL (TSLL (next (getTSLL (read var2 (next (getTSLL (read var2 var0)))))) var0 (data (getTSLL (read var2 (next (getTSLL (read var2 var0))))))))) var1 var0))))
(assert (forall ((var0 Addr) (var1 Addr) (var2 Heap)) (or (not (and (inv_main24 var2 var1 var0) (is-O_TSLL (read var2 var0)))) (inv_main25 (write var2 var0 (O_TSLL (TSLL var1 (prev (getTSLL (read var2 var0))) (data (getTSLL (read var2 var0)))))) var1 var0))))
(assert (forall ((var0 Addr) (var1 Addr) (var2 Heap)) (or (not (and (inv_main71 var2 var1 var0) (= var0 nullAddr))) (inv_main0 var2 0))))
(assert (forall ((var0 Addr) (var1 Heap)) (or (not (and (inv_main4 var1 var0) (is-O_TSLL (read var1 var0)))) (inv_main5 (write var1 var0 (O_TSLL (TSLL (next (getTSLL (read var1 var0))) nullAddr (data (getTSLL (read var1 var0)))))) var0))))
(assert (forall ((var0 TSLL) (var1 Heap)) (or (not (inv_main2 var1)) (inv_main3 (newHeap (alloc var1 (O_TSLL var0))) (newAddr (alloc var1 (O_TSLL var0)))))))
(assert (forall ((var0 TSLL) (var1 Int) (var2 Addr) (var3 Addr) (var4 Heap)) (or (not (and (inv_main7 var4 var3 var2) (not (= var1 0)))) (inv_main12 (newHeap (alloc var4 (O_TSLL var0))) var3 var2 (newAddr (alloc var4 (O_TSLL var0)))))))
(assert (forall ((var0 Addr) (var1 Addr) (var2 Heap) (var3 Int) (var4 Addr) (var5 Addr) (var6 Heap)) (or (not (and (inv_main58 var6 var5 var4) (and (and (not (= var3 1)) (is-O_TSLL (read var6 var4))) (and (and (and (= var2 var6) (= var1 var5)) (= var0 var4)) (= var3 (data (getTSLL (read var6 var4)))))))) (inv_main59 var2 var1 var0))))
(assert (forall ((var0 Addr) (var1 Heap)) (or (not (and (inv_main3 var1 var0) (is-O_TSLL (read var1 var0)))) (inv_main4 (write var1 var0 (O_TSLL (TSLL nullAddr (prev (getTSLL (read var1 var0))) (data (getTSLL (read var1 var0)))))) var0))))
(assert (forall ((var0 Int) (var1 Int) (var2 Addr) (var3 Addr) (var4 Addr) (var5 TSLL) (var6 Heap) (var7 Addr) (var8 Addr) (var9 Heap)) (or (not (and (inv_main7 var9 var8 var7) (and (and (and (and (= var6 (newHeap (alloc var9 (O_TSLL var5)))) (= var4 var8)) (= var3 var7)) (= var2 (newAddr (alloc var9 (O_TSLL var5))))) (and (not (= var1 0)) (= var0 0))))) (inv_main22 var6 var4 var2))))
(assert (forall ((var0 TSLL) (var1 Addr) (var2 Addr) (var3 Addr) (var4 Heap) (var5 Addr) (var6 Addr) (var7 Heap)) (or (not (and (inv_main29 var7 var6 var5) (and (is-O_TSLL (read var7 var5)) (and (and (and (= var4 var7) (= var3 var6)) (= var2 var5)) (= var1 (next (getTSLL (read var7 var5)))))))) (inv_main40 (newHeap (alloc var4 (O_TSLL var0))) var3 var2 var1 (newAddr (alloc var4 (O_TSLL var0)))))))
(assert (forall ((var0 Addr) (var1 Heap)) (not (and (inv_main3 var1 var0) (not (is-O_TSLL (read var1 var0)))))))
(assert (forall ((var0 Addr) (var1 Heap)) (not (and (inv_main4 var1 var0) (not (is-O_TSLL (read var1 var0)))))))
(assert (forall ((var0 Addr) (var1 Heap)) (not (and (inv_main5 var1 var0) (not (is-O_TSLL (read var1 var0)))))))
(assert (forall ((var0 Addr) (var1 Addr) (var2 Addr) (var3 Heap)) (not (and (inv_main12 var3 var2 var1 var0) (not (is-O_TSLL (read var3 var1)))))))
(assert (forall ((var0 Addr) (var1 Addr) (var2 Heap)) (not (and (inv_main11 var2 var1 var0) (not (is-O_TSLL (read var2 var0)))))))
(assert (forall ((var0 Addr) (var1 Addr) (var2 Heap)) (not (and (inv_main11 var2 var1 var0) (and (is-O_TSLL (read var2 var0)) (not (is-O_TSLL (read var2 (next (getTSLL (read var2 var0)))))))))))
(assert (forall ((var0 Addr) (var1 Addr) (var2 Heap)) (not (and (inv_main13 var2 var1 var0) (not (is-O_TSLL (read var2 var0)))))))
(assert (forall ((var0 Addr) (var1 Addr) (var2 Heap)) (not (and (inv_main14 var2 var1 var0) (not (is-O_TSLL (read var2 var0)))))))
(assert (forall ((var0 Addr) (var1 Addr) (var2 Heap)) (not (and (inv_main16 var2 var1 var0) (not (is-O_TSLL (read var2 var0)))))))
(assert (forall ((var0 Addr) (var1 Addr) (var2 Heap)) (not (and (inv_main22 var2 var1 var0) (not (is-O_TSLL (read var2 var0)))))))
(assert (forall ((var0 Addr) (var1 Addr) (var2 Heap)) (not (and (inv_main24 var2 var1 var0) (not (is-O_TSLL (read var2 var0)))))))
(assert (forall ((var0 Addr) (var1 Addr) (var2 Heap)) (not (and (inv_main25 var2 var1 var0) (not (is-O_TSLL (read var2 var0)))))))
(assert (forall ((var0 Addr) (var1 Addr) (var2 Heap)) (not (and (inv_main28 var2 var1 var0) (not (is-O_TSLL (read var2 var0)))))))
(assert (forall ((var0 Addr) (var1 Addr) (var2 Heap)) (not (and (inv_main32 var2 var1 var0) (not (is-O_TSLL (read var2 var0)))))))
(assert (forall ((var0 Addr) (var1 Addr) (var2 Heap)) (not (and (inv_main29 var2 var1 var0) (not (is-O_TSLL (read var2 var0)))))))
(assert (forall ((var0 Addr) (var1 Addr) (var2 Addr) (var3 Addr) (var4 Heap)) (not (and (inv_main40 var4 var3 var2 var1 var0) (not (is-O_TSLL (read var4 var2)))))))
(assert (forall ((var0 Addr) (var1 Addr) (var2 Addr) (var3 Heap)) (not (and (inv_main39 var3 var2 var1 var0) (not (is-O_TSLL (read var3 var1)))))))
(assert (forall ((var0 Addr) (var1 Addr) (var2 Addr) (var3 Heap)) (not (and (inv_main41 var3 var2 var1 var0) (not (is-O_TSLL (read var3 var1)))))))
(assert (forall ((var0 Addr) (var1 Addr) (var2 Addr) (var3 Heap)) (not (and (inv_main44 var3 var2 var1 var0) (not (is-O_TSLL (read var3 var0)))))))
(assert (forall ((var0 Addr) (var1 Addr) (var2 Addr) (var3 Addr) (var4 Heap)) (not (and (inv_main47 var4 var3 var2 var1 var0) (not (is-O_TSLL (read var4 var2)))))))
(assert (forall ((var0 Addr) (var1 Addr) (var2 Addr) (var3 Heap)) (not (and (inv_main46 var3 var2 var1 var0) (not (is-O_TSLL (read var3 var0)))))))
(assert (forall ((var0 Addr) (var1 Addr) (var2 Heap)) (not (and (inv_main49 var2 var1 var0) (not (is-O_TSLL (read var2 var0)))))))
(assert (forall ((var0 Addr) (var1 Addr) (var2 Heap)) (not (and (inv_main51 var2 var1 var0) (not (is-O_TSLL (read var2 var0)))))))
(assert (forall ((var0 Addr) (var1 Addr) (var2 Heap)) (not (and (inv_main50 var2 var1 var0) (not (is-O_TSLL (read var2 var0)))))))
(assert (forall ((var0 Addr) (var1 Addr) (var2 Heap)) (not (and (inv_main58 var2 var1 var0) (not (is-O_TSLL (read var2 var0)))))))
(assert (forall ((var0 Addr) (var1 Addr) (var2 Heap)) (not (inv_main65 var2 var1 var0))))
(assert (forall ((var0 Addr) (var1 Addr) (var2 Heap)) (not (and (inv_main59 var2 var1 var0) (not (is-O_TSLL (read var2 var0)))))))
(assert (forall ((var0 Addr) (var1 Addr) (var2 Heap)) (not (and (inv_main74 var2 var1 var0) (not (is-O_TSLL (read var2 var0)))))))
(assert (forall ((var0 Addr) (var1 Int) (var2 Heap)) (not (and (inv_main0 var2 var1) (not (= (read var2 var0) defObj))))))
(check-sat)
